50

92 23 276
89 10 293
87 10 266
84 11 296
82 4 259
82 24 250
81 11 275
75 4 282
73 3 263
71 11 261
67 9 203
67 11 219
63 2 284
59 2 271
57 16 189
56 4 214
52 2 263
49 11 212
48 13 270
47 14 247
46 5 175
41 10 236
39 7 219
38 4 276
36 9 291
35 9 201
34 4 214
34 7 214
30 6 177
29 5 293
26 0 272
21 0 249
20 6 225
19 0 299
18 5 95
15 2 288
15 3 56
13 4 102
11 2 280
10 1 148
10 2 65
10 3 296
9 3 132
8 3 285
8 0 253
7 1 90
6 1 179
6 1 70
6 1 138
3 1 252
